05 5.0 5
02 5.0 6
08 5.0 2
05 5.1 4
02 5.1 6
08 5.1 2
05 5.2 6
02 5.2 6
08 5.2 3
05 5.3 5
02 5.3 6
08 5.3 2
05 5.4 5
02 5.4 6
08 5.4 1
05 5.5 6
02 5.5 6
08 5.5 2
05 5.6 5
02 5.6 5
08 5.6 2
05 5.7 3
02 5.7 5
08 5.7 2
05 5.8 4
02 5.8 6
08 5.8 2
05 5.9 2
02 5.9 6
08 5.9 1
05 5.10 5
02 5.10 6
08 5.10 1
05 5.11 3
02 5.11 6
08 5.11 1
05 5.12 6
02 5.12 5
08 5.12 1
05 5.13 5
02 5.13 6
08 5.13 2
05 5.14 5
02 5.14 6
08 5.14 3
05 5.15 4
02 5.15 5
08 5.15 3
05 5.16 5
02 5.16 6
08 5.16 5
05 5.17 4
02 5.17 4
08 5.17 3
05 5.18 3
02 5.18 5
08 5.18 2
05 5.19 4
02 5.19 5
08 5.19 1
05 5.20 5
02 5.20 6
08 5.20 2
05 5.21 4
02 5.21 6
08 5.21 3
05 5.22 5
02 5.22 6
08 5.22 1
05 5.23 5
02 5.23 6
08 5.23 3
05 5.24 2
02 5.24 6
08 5.24 2
05 5.25 5
02 5.25 5
08 5.25 3
05 5.26 2
02 5.26 6
08 5.26 1
05 5.27 4
02 5.27 6
08 5.27 1
05 5.28 5
02 5.28 6
08 5.28 2
05 5.29 4
02 5.29 5
08 5.29 1
05 5.30 5
02 5.30 6
08 5.30 0
05 5.31 5
02 5.31 6
08 5.31 2
05 5.32 4
02 5.32 6
08 5.32 1
05 5.33 1
02 5.33 5
08 5.33 3
05 5.34 4
02 5.34 5
08 5.34 4
05 5.35 4
02 5.35 6
08 5.35 1
05 5.36 4
02 5.36 5
08 5.36 1
05 5.37 3
02 5.37 6
08 5.37 1
05 5.38 3
02 5.38 5
08 5.38 2
05 5.39 5
02 5.39 6
08 5.39 1
05 5.40 6
02 5.40 6
08 5.40 1
05 5.41 4
02 5.41 5
08 5.41 1
05 5.42 3
02 5.42 6
08 5.42 2
05 5.43 4
02 5.43 6
08 5.43 3
05 5.44 4
02 5.44 6
08 5.44 3
05 5.45 6
02 5.45 6
08 5.45 4
05 5.46 5
02 5.46 5
08 5.46 3
05 5.47 3
02 5.47 5
08 5.47 0
05 5.48 4
02 5.48 5
08 5.48 2
05 5.49 4
02 5.49 6
08 5.49 2
05 5.50 3
02 5.50 6
08 5.50 4
05 5.51 5
02 5.51 6
08 5.51 3
05 5.52 4
02 5.52 6
08 5.52 2
05 5.53 3
02 5.53 6
08 5.53 2
05 5.54 6
02 5.54 6
08 5.54 1
05 5.55 3
02 5.55 6
08 5.55 0
05 5.56 3
02 5.56 6
08 5.56 4
05 5.57 3
02 5.57 5
08 5.57 2
05 5.58 5
02 5.58 4
08 5.58 4
05 5.59 6
02 5.59 5
08 5.59 1
05 5.60 5
02 5.60 5
08 5.60 3
05 5.61 2
02 5.61 6
08 5.61 1
05 5.62 6
02 5.62 6
08 5.62 2
05 5.63 5
02 5.63 5
08 5.63 1
05 5.64 3
02 5.64 5
08 5.64 4
05 5.65 2
02 5.65 6
08 5.65 0
05 5.66 3
02 5.66 6
08 5.66 2
05 5.67 3
02 5.67 6
08 5.67 3
05 5.68 5
02 5.68 6
08 5.68 3
05 5.69 4
02 5.69 5
08 5.69 3
05 5.70 4
02 5.70 6
08 5.70 2
05 5.71 3
02 5.71 6
08 5.71 2
05 5.72 5
02 5.72 6
08 5.72 1
05 5.73 4
02 5.73 5
08 5.73 4
05 5.74 4
02 5.74 6
08 5.74 1
05 5.75 5
02 5.75 6
08 5.75 1
05 5.76 4
02 5.76 6
08 5.76 2
05 5.77 3
02 5.77 5
08 5.77 3
05 5.78 5
02 5.78 4
08 5.78 2
05 5.79 5
02 5.79 5
08 5.79 1
05 5.80 6
02 5.80 6
08 5.80 2
05 5.81 5
02 5.81 5
08 5.81 2
05 5.82 3
02 5.82 6
08 5.82 1
05 5.83 5
02 5.83 6
08 5.83 3
05 5.84 4
02 5.84 6
08 5.84 2
05 5.85 5
02 5.85 6
08 5.85 4
05 5.86 3
02 5.86 6
08 5.86 1
05 5.87 6
02 5.87 6
08 5.87 1
05 5.88 4
02 5.88 6
08 5.88 1
05 5.89 5
02 5.89 6
08 5.89 4
05 5.90 4
02 5.90 6
08 5.90 0
05 5.91 6
02 5.91 6
08 5.91 0
05 5.92 3
02 5.92 6
08 5.92 2
05 5.93 4
02 5.93 4
08 5.93 2
05 5.94 5
02 5.94 5
08 5.94 4
05 5.95 5
02 5.95 6
08 5.95 2
05 5.96 5
02 5.96 6
08 5.96 2
05 5.97 4
02 5.97 6
08 5.97 1
05 5.98 4
02 5.98 6
08 5.98 3
05 5.99 4
02 5.99 5
08 5.99 3
05 6.0 8
02 6.0 9
08 6.0 2
05 6.1 6
02 6.1 8
08 6.1 4
05 6.2 4
02 6.2 8
08 6.2 5
05 6.3 8
02 6.3 7
08 6.3 1
05 6.4 6
02 6.4 9
08 6.4 2
05 6.5 6
02 6.5 9
08 6.5 2
05 6.6 7
02 6.6 9
08 6.6 1
05 6.7 8
02 6.7 9
08 6.7 1
05 6.8 5
02 6.8 9
08 6.8 1
05 6.9 5
02 6.9 8
08 6.9 3
05 6.10 5
02 6.10 8
08 6.10 3
05 6.11 7
02 6.11 9
08 6.11 1
05 6.12 6
02 6.12 8
08 6.12 3
05 6.13 6
02 6.13 8
08 6.13 5
05 6.14 7
02 6.14 8
08 6.14 1
05 6.15 8
02 6.15 8
08 6.15 3
05 6.16 8
02 6.16 8
08 6.16 1
05 6.17 5
02 6.17 8
08 6.17 3
05 6.18 7
02 6.18 9
08 6.18 3
05 6.19 6
02 6.19 9
08 6.19 4
05 6.20 4
02 6.20 8
08 6.20 5
05 6.21 8
02 6.21 7
08 6.21 2
05 6.22 4
02 6.22 9
08 6.22 2
05 6.23 7
02 6.23 8
08 6.23 3
05 6.24 7
02 6.24 8
08 6.24 2
05 6.25 8
02 6.25 8
08 6.25 1
05 6.26 6
02 6.26 7
08 6.26 1
05 6.27 8
02 6.27 9
08 6.27 3
05 6.28 7
02 6.28 9
08 6.28 1
05 6.29 7
02 6.29 9
08 6.29 2
05 6.30 7
02 6.30 7
08 6.30 2
05 6.31 8
02 6.31 9
08 6.31 2
05 6.32 4
02 6.32 9
08 6.32 3
05 6.33 6
02 6.33 8
08 6.33 3
05 6.34 5
02 6.34 6
08 6.34 3
05 6.35 4
02 6.35 9
08 6.35 0
05 6.36 7
02 6.36 9
08 6.36 2
05 6.37 5
02 6.37 9
08 6.37 3
05 6.38 6
02 6.38 9
08 6.38 2
05 6.39 6
02 6.39 8
08 6.39 4
05 6.40 6
02 6.40 9
08 6.40 1
05 6.41 6
02 6.41 7
08 6.41 2
05 6.42 8
02 6.42 8
08 6.42 2
05 6.43 5
02 6.43 8
08 6.43 3
05 6.44 8
02 6.44 8
08 6.44 2
05 6.45 8
02 6.45 9
08 6.45 1
05 6.46 6
02 6.46 9
08 6.46 2
05 6.47 6
02 6.47 9
08 6.47 4
05 6.48 5
02 6.48 8
08 6.48 2
05 6.49 6
02 6.49 9
08 6.49 3
05 6.50 7
02 6.50 9
08 6.50 4
05 6.51 8
02 6.51 9
08 6.51 2
05 6.52 6
02 6.52 7
08 6.52 3
05 6.53 6
02 6.53 8
08 6.53 2
05 6.54 6
02 6.54 9
08 6.54 2
05 6.55 5
02 6.55 8
08 6.55 2
05 6.56 6
02 6.56 8
08 6.56 3
05 6.57 4
02 6.57 7
08 6.57 4
05 6.58 7
02 6.58 9
08 6.58 2
05 6.59 5
02 6.59 9
08 6.59 3
05 6.60 7
02 6.60 9
08 6.60 4
05 6.61 6
02 6.61 9
08 6.61 3
05 6.62 4
02 6.62 9
08 6.62 5
05 6.63 8
02 6.63 8
08 6.63 3
05 6.64 4
02 6.64 9
08 6.64 4
05 6.65 6
02 6.65 9
08 6.65 3
05 6.66 6
02 6.66 8
08 6.66 6
05 6.67 6
02 6.67 7
08 6.67 2
05 6.68 8
02 6.68 8
08 6.68 2
05 6.69 7
02 6.69 9
08 6.69 2
05 6.70 7
02 6.70 9
08 6.70 3
05 6.71 5
02 6.71 9
08 6.71 3
05 6.72 7
02 6.72 7
08 6.72 1
05 6.73 7
02 6.73 9
08 6.73 2
05 6.74 7
02 6.74 9
08 6.74 1
05 6.75 6
02 6.75 9
08 6.75 4
05 6.76 3
02 6.76 9
08 6.76 4
05 6.77 5
02 6.77 8
08 6.77 3
05 6.78 6
02 6.78 9
08 6.78 3
05 6.79 8
02 6.79 9
08 6.79 2
05 6.80 6
02 6.80 8
08 6.80 3
05 6.81 7
02 6.81 9
08 6.81 2
05 6.82 6
02 6.82 8
08 6.82 3
05 6.83 7
02 6.83 9
08 6.83 3
05 6.84 6
02 6.84 9
08 6.84 3
05 6.85 6
02 6.85 8
08 6.85 2
05 6.86 7
02 6.86 8
08 6.86 1
05 6.87 8
02 6.87 6
08 6.87 4
05 6.88 5
02 6.88 8
08 6.88 6
05 6.89 6
02 6.89 9
08 6.89 3
05 6.90 6
02 6.90 9
08 6.90 3
05 6.91 6
02 6.91 8
08 6.91 1
05 6.92 8
02 6.92 8
08 6.92 2
05 6.93 7
02 6.93 9
08 6.93 0
05 6.94 5
02 6.94 8
08 6.94 3
05 6.95 6
02 6.95 8
08 6.95 5
05 6.96 5
02 6.96 9
08 6.96 2
05 6.97 6
02 6.97 9
08 6.97 1
05 6.98 7
02 6.98 9
08 6.98 3
05 6.99 6
02 6.99 8
08 6.99 2
05 7.0 8
02 7.0 12
08 7.0 5
05 7.1 8
02 7.1 11
08 7.1 4
05 7.2 7
02 7.2 12
08 7.2 5
05 7.3 6
02 7.3 11
08 7.3 3
05 7.4 9
02 7.4 11
08 7.4 5
05 7.5 10
02 7.5 10
08 7.5 5
05 7.6 8
02 7.6 11
08 7.6 4
05 7.7 8
02 7.7 11
08 7.7 3
05 7.8 9
02 7.8 12
08 7.8 7
05 7.9 11
02 7.9 11
08 7.9 4
05 7.10 7
02 7.10 10
08 7.10 3
05 7.11 5
02 7.11 10
08 7.11 3
05 7.12 8
02 7.12 12
08 7.12 6
05 7.13 9
02 7.13 12
08 7.13 5
05 7.14 8
02 7.14 12
08 7.14 2
05 7.15 8
02 7.15 12
08 7.15 5
05 7.16 6
02 7.16 10
08 7.16 5
05 7.17 10
02 7.17 12
08 7.17 2
05 7.18 10
02 7.18 12
08 7.18 2
05 7.19 8
02 7.19 11
08 7.19 6
05 7.20 9
02 7.20 12
08 7.20 4
05 7.21 9
02 7.21 12
08 7.21 5
05 7.22 9
02 7.22 12
08 7.22 5
05 7.23 8
02 7.23 12
08 7.23 3
05 7.24 10
02 7.24 9
08 7.24 3
05 7.25 5
02 7.25 11
08 7.25 6
05 7.26 6
02 7.26 12
08 7.26 6
05 7.27 10
02 7.27 12
08 7.27 4
05 7.28 8
02 7.28 12
08 7.28 5
05 7.29 9
02 7.29 10
08 7.29 3
05 7.30 9
02 7.30 12
08 7.30 3
05 7.31 7
02 7.31 12
08 7.31 4
05 7.32 11
02 7.32 12
08 7.32 3
05 7.33 9
02 7.33 12
08 7.33 4
05 7.34 8
02 7.34 11
08 7.34 3
05 7.35 5
02 7.35 12
08 7.35 6
05 7.36 7
02 7.36 12
08 7.36 6
05 7.37 9
02 7.37 11
08 7.37 4
05 7.38 9
02 7.38 11
08 7.38 2
05 7.39 10
02 7.39 11
08 7.39 5
05 7.40 8
02 7.40 12
08 7.40 7
05 7.41 12
02 7.41 11
08 7.41 3
05 7.42 6
02 7.42 12
08 7.42 4
05 7.43 8
02 7.43 12
08 7.43 5
05 7.44 9
02 7.44 12
08 7.44 4
05 7.45 10
02 7.45 12
08 7.45 6
05 7.46 7
02 7.46 11
08 7.46 3
05 7.47 8
02 7.47 11
08 7.47 3
05 7.48 9
02 7.48 12
08 7.48 0
05 7.49 9
02 7.49 11
08 7.49 5
05 7.50 9
02 7.50 12
08 7.50 4
05 7.51 9
02 7.51 11
08 7.51 3
05 7.52 8
02 7.52 12
08 7.52 5
05 7.53 6
02 7.53 11
08 7.53 1
05 7.54 10
02 7.54 11
08 7.54 3
05 7.55 9
02 7.55 11
08 7.55 2
05 7.56 7
02 7.56 12
08 7.56 4
05 7.57 8
02 7.57 11
08 7.57 6
05 7.58 9
02 7.58 11
08 7.58 2
05 7.59 8
02 7.59 12
08 7.59 3
05 7.60 7
02 7.60 10
08 7.60 4
05 7.61 9
02 7.61 12
08 7.61 5
05 7.62 8
02 7.62 11
08 7.62 3
05 7.63 10
02 7.63 12
08 7.63 6
05 7.64 9
02 7.64 10
08 7.64 8
05 7.65 7
02 7.65 11
08 7.65 5
05 7.66 7
02 7.66 12
08 7.66 5
05 7.67 8
02 7.67 12
08 7.67 7
05 7.68 10
02 7.68 12
08 7.68 8
05 7.69 5
02 7.69 10
08 7.69 2
05 7.70 10
02 7.70 12
08 7.70 7
05 7.71 10
02 7.71 12
08 7.71 5
05 7.72 10
02 7.72 12
08 7.72 6
05 7.73 12
02 7.73 11
08 7.73 4
05 7.74 9
02 7.74 11
08 7.74 5
05 7.75 9
02 7.75 11
08 7.75 4
05 7.76 6
02 7.76 10
08 7.76 2
05 7.77 8
02 7.77 11
08 7.77 5
05 7.78 9
02 7.78 12
08 7.78 2
05 7.79 8
02 7.79 9
08 7.79 2
05 7.80 9
02 7.80 12
08 7.80 3
05 7.81 6
02 7.81 11
08 7.81 3
05 7.82 11
02 7.82 12
08 7.82 5
05 7.83 10
02 7.83 12
08 7.83 7
05 7.84 8
02 7.84 12
08 7.84 8
05 7.85 7
02 7.85 11
08 7.85 2
05 7.86 10
02 7.86 11
08 7.86 5
05 7.87 6
02 7.87 12
08 7.87 1
05 7.88 8
02 7.88 12
08 7.88 3
05 7.89 10
02 7.89 12
08 7.89 0
05 7.90 8
02 7.90 12
08 7.90 3
05 7.91 10
02 7.91 12
08 7.91 3
05 7.92 9
02 7.92 11
08 7.92 5
05 7.93 9
02 7.93 10
08 7.93 1
05 7.94 9
02 7.94 12
08 7.94 3
05 7.95 11
02 7.95 12
08 7.95 5
05 7.96 9
02 7.96 11
08 7.96 2
05 7.97 8
02 7.97 12
08 7.97 2
05 7.98 8
02 7.98 11
08 7.98 1
05 7.99 12
02 7.99 11
08 7.99 6
05 8.0 11
02 8.0 14
08 8.0 8
05 8.1 12
02 8.1 15
08 8.1 8
05 8.2 11
02 8.2 14
08 8.2 4
05 8.3 12
02 8.3 15
08 8.3 2
05 8.4 10
02 8.4 13
08 8.4 8
05 8.5 9
02 8.5 15
08 8.5 4
05 8.6 9
02 8.6 15
08 8.6 4
05 8.7 7
02 8.7 14
08 8.7 7
05 8.8 10
02 8.8 14
08 8.8 2
05 8.9 14
02 8.9 15
08 8.9 6
05 8.10 10
02 8.10 15
08 8.10 3
05 8.11 12
02 8.11 15
08 8.11 6
05 8.12 12
02 8.12 16
08 8.12 8
05 8.13 14
02 8.13 15
08 8.13 7
05 8.14 11
02 8.14 15
08 8.14 10
05 8.15 9
02 8.15 13
08 8.15 5
05 8.16 13
02 8.16 14
08 8.16 8
05 8.17 11
02 8.17 15
08 8.17 7
05 8.18 14
02 8.18 16
08 8.18 4
05 8.19 11
02 8.19 13
08 8.19 5
05 8.20 9
02 8.20 13
08 8.20 5
05 8.21 11
02 8.21 14
08 8.21 3
05 8.22 12
02 8.22 15
08 8.22 5
05 8.23 11
02 8.23 16
08 8.23 7
05 8.24 9
02 8.24 16
08 8.24 6
05 8.25 12
02 8.25 16
08 8.25 7
05 8.26 12
02 8.26 14
08 8.26 6
05 8.27 10
02 8.27 15
08 8.27 4
05 8.28 10
02 8.28 15
08 8.28 4
05 8.29 13
02 8.29 16
08 8.29 4
05 8.30 10
02 8.30 16
08 8.30 6
05 8.31 11
02 8.31 15
08 8.31 6
05 8.32 10
02 8.32 14
08 8.32 5
05 8.33 11
02 8.33 16
08 8.33 7
05 8.34 11
02 8.34 16
08 8.34 3
05 8.35 10
02 8.35 16
08 8.35 8
05 8.36 12
02 8.36 15
08 8.36 7
05 8.37 10
02 8.37 16
08 8.37 3
05 8.38 10
02 8.38 15
08 8.38 5
05 8.39 10
02 8.39 16
08 8.39 3
05 8.40 11
02 8.40 16
08 8.40 6
05 8.41 11
02 8.41 16
08 8.41 6
05 8.42 10
02 8.42 16
08 8.42 4
05 8.43 10
02 8.43 15
08 8.43 4
05 8.44 9
02 8.44 14
08 8.44 3
05 8.45 12
02 8.45 15
08 8.45 8
05 8.46 11
02 8.46 13
08 8.46 6
05 8.47 12
02 8.47 16
08 8.47 5
05 8.48 11
02 8.48 15
08 8.48 6
05 8.49 11
02 8.49 13
08 8.49 3
05 8.50 10
02 8.50 15
08 8.50 5
05 8.51 9
02 8.51 16
08 8.51 7
05 8.52 13
02 8.52 15
08 8.52 4
05 8.53 9
02 8.53 16
08 8.53 4
05 8.54 8
02 8.54 15
08 8.54 8
05 8.55 8
02 8.55 14
08 8.55 5
05 8.56 9
02 8.56 16
08 8.56 6
05 8.57 9
02 8.57 15
08 8.57 3
05 8.58 13
02 8.58 16
08 8.58 9
05 8.59 13
02 8.59 14
08 8.59 4
05 8.60 10
02 8.60 14
08 8.60 7
05 8.61 9
02 8.61 14
08 8.61 5
05 8.62 12
02 8.62 13
08 8.62 6
05 8.63 9
02 8.63 14
08 8.63 5
05 8.64 13
02 8.64 15
08 8.64 6
05 8.65 9
02 8.65 14
08 8.65 3
05 8.66 12
02 8.66 14
08 8.66 5
05 8.67 12
02 8.67 14
08 8.67 3
05 8.68 10
02 8.68 15
08 8.68 4
05 8.69 10
02 8.69 15
08 8.69 3
05 8.70 10
02 8.70 14
08 8.70 3
05 8.71 12
02 8.71 15
08 8.71 1
05 8.72 9
02 8.72 15
08 8.72 7
05 8.73 13
02 8.73 16
08 8.73 6
05 8.74 13
02 8.74 16
08 8.74 4
05 8.75 12
02 8.75 13
08 8.75 8
05 8.76 7
02 8.76 15
08 8.76 3
05 8.77 14
02 8.77 15
08 8.77 4
05 8.78 10
02 8.78 14
08 8.78 4
05 8.79 10
02 8.79 16
08 8.79 4
05 8.80 11
02 8.80 16
08 8.80 5
05 8.81 9
02 8.81 16
08 8.81 7
05 8.82 10
02 8.82 15
08 8.82 5
05 8.83 13
02 8.83 16
08 8.83 4
05 8.84 10
02 8.84 13
08 8.84 5
05 8.85 14
02 8.85 15
08 8.85 6
05 8.86 9
02 8.86 14
08 8.86 3
05 8.87 11
02 8.87 16
08 8.87 5
05 8.88 15
02 8.88 15
08 8.88 5
05 8.89 11
02 8.89 14
08 8.89 2
05 8.90 9
02 8.90 13
08 8.90 8
05 8.91 11
02 8.91 16
08 8.91 7
05 8.92 11
02 8.92 16
08 8.92 6
05 8.93 11
02 8.93 15
08 8.93 6
05 8.94 8
02 8.94 16
08 8.94 8
05 8.95 10
02 8.95 15
08 8.95 4
05 8.96 10
02 8.96 15
08 8.96 6
05 8.97 10
02 8.97 14
08 8.97 4
05 8.98 9
02 8.98 16
08 8.98 5
05 8.99 12
02 8.99 15
08 8.99 6
05 9.0 11
02 9.0 18
08 9.0 5
05 9.1 17
02 9.1 18
08 9.1 8
05 9.2 16
02 9.2 20
08 9.2 4
05 9.3 14
02 9.3 20
08 9.3 7
05 9.4 12
02 9.4 18
08 9.4 6
05 9.5 14
02 9.5 19
08 9.5 7
05 9.6 16
02 9.6 19
08 9.6 9
05 9.7 13
02 9.7 20
08 9.7 8
05 9.8 16
02 9.8 20
08 9.8 7
05 9.9 14
02 9.9 19
08 9.9 9
05 9.10 11
02 9.10 19
08 9.10 8
05 9.11 14
02 9.11 19
08 9.11 7
05 9.12 14
02 9.12 18
08 9.12 5
05 9.13 13
02 9.13 20
08 9.13 7
05 9.14 13
02 9.14 19
08 9.14 5
05 9.15 13
02 9.15 18
08 9.15 6
05 9.16 12
02 9.16 17
08 9.16 7
05 9.17 15
02 9.17 19
08 9.17 7
05 9.18 12
02 9.18 20
08 9.18 5
05 9.19 13
02 9.19 19
08 9.19 5
05 9.20 13
02 9.20 19
08 9.20 2
05 9.21 13
02 9.21 18
08 9.21 5
05 9.22 15
02 9.22 17
08 9.22 10
05 9.23 15
02 9.23 18
08 9.23 7
05 9.24 14
02 9.24 19
08 9.24 6
05 9.25 11
02 9.25 19
08 9.25 5
05 9.26 15
02 9.26 20
08 9.26 7
05 9.27 16
02 9.27 18
08 9.27 7
05 9.28 15
02 9.28 18
08 9.28 6
05 9.29 15
02 9.29 18
08 9.29 5
05 9.30 14
02 9.30 20
08 9.30 11
05 9.31 14
02 9.31 19
08 9.31 7
05 9.32 16
02 9.32 19
08 9.32 7
05 9.33 13
02 9.33 18
08 9.33 8
05 9.34 14
02 9.34 20
08 9.34 8
05 9.35 13
02 9.35 20
08 9.35 5
05 9.36 16
02 9.36 17
08 9.36 7
05 9.37 14
02 9.37 19
08 9.37 7
05 9.38 15
02 9.38 17
08 9.38 4
05 9.39 13
02 9.39 17
08 9.39 6
05 9.40 12
02 9.40 19
08 9.40 9
05 9.41 16
02 9.41 20
08 9.41 8
05 9.42 14
02 9.42 18
08 9.42 7
05 9.43 11
02 9.43 19
08 9.43 8
05 9.44 15
02 9.44 20
08 9.44 5
05 9.45 14
02 9.45 19
08 9.45 7
05 9.46 9
02 9.46 19
08 9.46 7
05 9.47 16
02 9.47 16
08 9.47 7
05 9.48 14
02 9.48 18
08 9.48 7
05 9.49 14
02 9.49 19
08 9.49 2
05 9.50 14
02 9.50 19
08 9.50 8
05 9.51 14
02 9.51 17
08 9.51 8
05 9.52 11
02 9.52 16
08 9.52 4
05 9.53 15
02 9.53 19
08 9.53 6
05 9.54 15
02 9.54 19
08 9.54 7
05 9.55 13
02 9.55 18
08 9.55 6
05 9.56 13
02 9.56 20
08 9.56 6
05 9.57 13
02 9.57 19
08 9.57 6
05 9.58 10
02 9.58 18
08 9.58 5
05 9.59 13
02 9.59 20
08 9.59 10
05 9.60 13
02 9.60 19
08 9.60 5
05 9.61 14
02 9.61 18
08 9.61 8
05 9.62 16
02 9.62 20
08 9.62 8
05 9.63 12
02 9.63 19
08 9.63 9
05 9.64 13
02 9.64 19
08 9.64 11
05 9.65 11
02 9.65 20
08 9.65 3
05 9.66 10
02 9.66 18
08 9.66 6
05 9.67 13
02 9.67 16
08 9.67 7
05 9.68 15
02 9.68 19
08 9.68 7
05 9.69 12
02 9.69 20
08 9.69 7
05 9.70 15
02 9.70 18
08 9.70 4
05 9.71 13
02 9.71 18
08 9.71 8
05 9.72 13
02 9.72 17
08 9.72 7
05 9.73 15
02 9.73 19
08 9.73 8
05 9.74 15
02 9.74 20
08 9.74 7
05 9.75 16
02 9.75 18
08 9.75 5
05 9.76 13
02 9.76 20
08 9.76 5
05 9.77 13
02 9.77 18
08 9.77 6
05 9.78 16
02 9.78 20
08 9.78 9
05 9.79 15
02 9.79 19
08 9.79 1
05 9.80 15
02 9.80 17
08 9.80 6
05 9.81 13
02 9.81 18
08 9.81 7
05 9.82 14
02 9.82 20
08 9.82 6
05 9.83 14
02 9.83 18
08 9.83 8
05 9.84 14
02 9.84 18
08 9.84 5
05 9.85 15
02 9.85 20
08 9.85 7
05 9.86 10
02 9.86 20
08 9.86 5
05 9.87 14
02 9.87 19
08 9.87 11
05 9.88 11
02 9.88 20
08 9.88 6
05 9.89 13
02 9.89 19
08 9.89 6
05 9.90 10
02 9.90 20
08 9.90 7
05 9.91 12
02 9.91 18
08 9.91 8
05 9.92 12
02 9.92 18
08 9.92 5
05 9.93 13
02 9.93 19
08 9.93 7
05 9.94 15
02 9.94 19
08 9.94 7
05 9.95 14
02 9.95 18
08 9.95 7
05 9.96 15
02 9.96 18
08 9.96 8
05 9.97 15
02 9.97 18
08 9.97 7
05 9.98 14
02 9.98 20
08 9.98 10
05 9.99 12
02 9.99 19
08 9.99 8
05 10.0 12
02 10.0 22
08 10.0 6
05 10.1 18
02 10.1 24
08 10.1 8
05 10.2 19
02 10.2 22
08 10.2 8
05 10.3 16
02 10.3 23
08 10.3 5
05 10.4 15
02 10.4 25
08 10.4 8
05 10.5 18
02 10.5 22
08 10.5 5
05 10.6 18
02 10.6 23
08 10.6 9
05 10.7 16
02 10.7 22
08 10.7 9
05 10.8 18
02 10.8 23
08 10.8 9
05 10.9 19
02 10.9 24
08 10.9 7
05 10.10 18
02 10.10 24
08 10.10 6
05 10.11 21
02 10.11 24
08 10.11 4
05 10.12 14
02 10.12 23
08 10.12 7
05 10.13 15
02 10.13 22
08 10.13 10
05 10.14 14
02 10.14 24
08 10.14 7
05 10.15 19
02 10.15 24
08 10.15 8
05 10.16 17
02 10.16 24
08 10.16 14
05 10.17 17
02 10.17 23
08 10.17 8
05 10.18 17
02 10.18 25
08 10.18 10
05 10.19 19
02 10.19 24
08 10.19 7
05 10.20 20
02 10.20 23
08 10.20 6
05 10.21 18
02 10.21 24
08 10.21 9
05 10.22 12
02 10.22 24
08 10.22 7
05 10.23 18
02 10.23 24
08 10.23 10
05 10.24 17
02 10.24 23
08 10.24 10
05 10.25 13
02 10.25 23
08 10.25 12
05 10.26 15
02 10.26 23
08 10.26 8
05 10.27 19
02 10.27 25
08 10.27 11
05 10.28 15
02 10.28 22
08 10.28 9
05 10.29 19
02 10.29 24
08 10.29 7
05 10.30 20
02 10.30 24
08 10.30 8
05 10.31 19
02 10.31 25
08 10.31 6
05 10.32 20
02 10.32 24
08 10.32 6
05 10.33 12
02 10.33 23
08 10.33 6
05 10.34 18
02 10.34 23
08 10.34 9
05 10.35 14
02 10.35 22
08 10.35 10
05 10.36 18
02 10.36 22
08 10.36 10
05 10.37 17
02 10.37 24
08 10.37 9
05 10.38 16
02 10.38 25
08 10.38 9
05 10.39 18
02 10.39 23
08 10.39 8
05 10.40 17
02 10.40 23
08 10.40 5
05 10.41 19
02 10.41 25
08 10.41 10
05 10.42 15
02 10.42 24
08 10.42 5
05 10.43 17
02 10.43 23
08 10.43 6
05 10.44 17
02 10.44 23
08 10.44 7
05 10.45 17
02 10.45 22
08 10.45 8
05 10.46 18
02 10.46 24
08 10.46 5
05 10.47 21
02 10.47 25
08 10.47 11
05 10.48 17
02 10.48 23
08 10.48 9
05 10.49 18
02 10.49 22
08 10.49 7
05 10.50 17
02 10.50 23
08 10.50 10
05 10.51 13
02 10.51 24
08 10.51 4
05 10.52 21
02 10.52 23
08 10.52 8
05 10.53 19
02 10.53 23
08 10.53 9
05 10.54 18
02 10.54 24
08 10.54 10
05 10.55 18
02 10.55 23
08 10.55 6
05 10.56 17
02 10.56 23
08 10.56 12
05 10.57 17
02 10.57 23
08 10.57 7
05 10.58 16
02 10.58 24
08 10.58 7
05 10.59 21
02 10.59 24
08 10.59 9
05 10.60 18
02 10.60 25
08 10.60 9
05 10.61 16
02 10.61 22
08 10.61 10
05 10.62 16
02 10.62 22
08 10.62 13
05 10.63 18
02 10.63 23
08 10.63 10
05 10.64 17
02 10.64 24
08 10.64 7
05 10.65 20
02 10.65 22
08 10.65 8
05 10.66 17
02 10.66 24
08 10.66 12
05 10.67 16
02 10.67 22
08 10.67 8
05 10.68 15
02 10.68 24
08 10.68 7
05 10.69 21
02 10.69 22
08 10.69 8
05 10.70 17
02 10.70 20
08 10.70 9
05 10.71 14
02 10.71 23
08 10.71 8
05 10.72 18
02 10.72 25
08 10.72 9
05 10.73 19
02 10.73 24
08 10.73 11
05 10.74 16
02 10.74 24
08 10.74 8
05 10.75 18
02 10.75 25
08 10.75 7
05 10.76 15
02 10.76 23
08 10.76 6
05 10.77 19
02 10.77 23
08 10.77 7
05 10.78 15
02 10.78 22
08 10.78 5
05 10.79 21
02 10.79 20
08 10.79 8
05 10.80 18
02 10.80 25
08 10.80 9
05 10.81 17
02 10.81 23
08 10.81 8
05 10.82 18
02 10.82 24
08 10.82 6
05 10.83 17
02 10.83 22
08 10.83 9
05 10.84 18
02 10.84 22
08 10.84 8
05 10.85 16
02 10.85 23
08 10.85 10
05 10.86 17
02 10.86 23
08 10.86 4
05 10.87 20
02 10.87 23
08 10.87 9
05 10.88 19
02 10.88 25
08 10.88 9
05 10.89 18
02 10.89 22
08 10.89 7
05 10.90 17
02 10.90 23
08 10.90 7
05 10.91 16
02 10.91 24
08 10.91 10
05 10.92 18
02 10.92 23
08 10.92 8
05 10.93 16
02 10.93 24
08 10.93 6
05 10.94 19
02 10.94 24
08 10.94 6
05 10.95 14
02 10.95 22
08 10.95 8
05 10.96 17
02 10.96 22
08 10.96 7
05 10.97 15
02 10.97 25
08 10.97 13
05 10.98 18
02 10.98 21
08 10.98 7
05 10.99 12
02 10.99 23
08 10.99 9
05 11.0 19
02 11.0 28
08 11.0 8
05 11.1 18
02 11.1 30
08 11.1 11
05 11.2 20
02 11.2 28
08 11.2 10
05 11.3 21
02 11.3 27
08 11.3 11
05 11.4 22
02 11.4 28
08 11.4 9
05 11.5 20
02 11.5 27
08 11.5 11
05 11.6 21
02 11.6 30
08 11.6 10
05 11.7 18
02 11.7 26
08 11.7 6
05 11.8 18
02 11.8 30
08 11.8 10
05 11.9 18
02 11.9 27
08 11.9 8
05 11.10 20
02 11.10 27
08 11.10 11
05 11.11 16
02 11.11 27
08 11.11 8
05 11.12 19
02 11.12 28
08 11.12 10
05 11.13 24
02 11.13 28
08 11.13 12
05 11.14 20
02 11.14 27
08 11.14 11
05 11.15 18
02 11.15 29
08 11.15 6
05 11.16 22
02 11.16 26
08 11.16 12
05 11.17 21
02 11.17 28
08 11.17 12
05 11.18 25
02 11.18 26
08 11.18 9
05 11.19 19
02 11.19 27
08 11.19 10
05 11.20 20
02 11.20 29
08 11.20 12
05 11.21 21
02 11.21 30
08 11.21 11
05 11.22 23
02 11.22 29
08 11.22 7
05 11.23 21
02 11.23 28
08 11.23 6
05 11.24 18
02 11.24 30
08 11.24 11
05 11.25 21
02 11.25 28
08 11.25 18
05 11.26 27
02 11.26 28
08 11.26 9
05 11.27 22
02 11.27 29
08 11.27 9
05 11.28 24
02 11.28 28
08 11.28 10
05 11.29 23
02 11.29 28
08 11.29 12
05 11.30 24
02 11.30 30
08 11.30 7
05 11.31 18
02 11.31 27
08 11.31 11
05 11.32 18
02 11.32 30
08 11.32 6
05 11.33 22
02 11.33 29
08 11.33 10
05 11.34 22
02 11.34 29
08 11.34 12
05 11.35 21
02 11.35 28
08 11.35 11
05 11.36 23
02 11.36 28
08 11.36 13
05 11.37 20
02 11.37 28
08 11.37 9
05 11.38 19
02 11.38 30
08 11.38 12
05 11.39 21
02 11.39 26
08 11.39 12
05 11.40 20
02 11.40 29
08 11.40 12
05 11.41 22
02 11.41 26
08 11.41 8
05 11.42 22
02 11.42 28
08 11.42 9
05 11.43 21
02 11.43 28
08 11.43 9
05 11.44 20
02 11.44 30
08 11.44 9
05 11.45 22
02 11.45 29
08 11.45 12
05 11.46 21
02 11.46 25
08 11.46 6
05 11.47 18
02 11.47 26
08 11.47 7
05 11.48 21
02 11.48 26
08 11.48 10
05 11.49 16
02 11.49 29
08 11.49 4
05 11.50 22
02 11.50 30
08 11.50 11
05 11.51 21
02 11.51 29
08 11.51 11
05 11.52 20
02 11.52 26
08 11.52 10
05 11.53 24
02 11.53 27
08 11.53 10
05 11.54 19
02 11.54 29
08 11.54 7
05 11.55 21
02 11.55 27
08 11.55 7
05 11.56 19
02 11.56 28
08 11.56 9
05 11.57 17
02 11.57 30
08 11.57 9
05 11.58 17
02 11.58 27
08 11.58 7
05 11.59 20
02 11.59 28
08 11.59 8
05 11.60 21
02 11.60 29
08 11.60 13
05 11.61 19
02 11.61 28
08 11.61 11
05 11.62 23
02 11.62 29
08 11.62 11
05 11.63 19
02 11.63 29
08 11.63 8
05 11.64 19
02 11.64 28
08 11.64 9
05 11.65 20
02 11.65 26
08 11.65 15
05 11.66 18
02 11.66 27
08 11.66 9
05 11.67 17
02 11.67 29
08 11.67 8
05 11.68 21
02 11.68 28
08 11.68 11
05 11.69 22
02 11.69 27
08 11.69 7
05 11.70 21
02 11.70 27
08 11.70 11
05 11.71 21
02 11.71 29
08 11.71 9
05 11.72 18
02 11.72 29
08 11.72 11
05 11.73 22
02 11.73 29
08 11.73 8
05 11.74 21
02 11.74 27
08 11.74 14
05 11.75 19
02 11.75 26
08 11.75 11
05 11.76 24
02 11.76 30
08 11.76 5
05 11.77 19
02 11.77 25
08 11.77 8
05 11.78 15
02 11.78 29
08 11.78 10
05 11.79 22
02 11.79 29
08 11.79 8
05 11.80 25
02 11.80 29
08 11.80 8
05 11.81 19
02 11.81 27
08 11.81 13
05 11.82 22
02 11.82 29
08 11.82 10
05 11.83 20
02 11.83 29
08 11.83 5
05 11.84 24
02 11.84 27
08 11.84 9
05 11.85 23
02 11.85 27
08 11.85 12
05 11.86 24
02 11.86 27
08 11.86 11
05 11.87 21
02 11.87 28
08 11.87 9
05 11.88 22
02 11.88 29
08 11.88 6
05 11.89 21
02 11.89 26
08 11.89 7
05 11.90 22
02 11.90 28
08 11.90 11
05 11.91 19
02 11.91 27
08 11.91 11
05 11.92 14
02 11.92 27
08 11.92 11
05 11.93 18
02 11.93 30
08 11.93 14
05 11.94 22
02 11.94 29
08 11.94 9
05 11.95 22
02 11.95 30
08 11.95 6
05 11.96 22
02 11.96 30
08 11.96 8
05 11.97 21
02 11.97 27
08 11.97 11
05 11.98 19
02 11.98 27
08 11.98 11
05 11.99 21
02 11.99 28
08 11.99 10
05 12.0 23
02 12.0 33
08 12.0 11
05 12.1 25
02 12.1 35
08 12.1 10
05 12.2 26
02 12.2 36
08 12.2 8
05 12.3 29
02 12.3 33
08 12.3 8
05 12.4 22
02 12.4 34
08 12.4 15
05 12.5 29
02 12.5 36
08 12.5 14
05 12.6 22
02 12.6 32
08 12.6 7
05 12.7 25
02 12.7 34
08 12.7 14
05 12.8 23
02 12.8 31
08 12.8 11
05 12.9 27
02 12.9 36
08 12.9 10
05 12.10 21
02 12.10 33
08 12.10 11
05 12.11 26
02 12.11 31
08 12.11 11
05 12.12 25
02 12.12 33
08 12.12 9
05 12.13 22
02 12.13 32
08 12.13 15
05 12.14 25
02 12.14 35
08 12.14 13
05 12.15 22
02 12.15 33
08 12.15 13
05 12.16 24
02 12.16 34
08 12.16 10
05 12.17 23
02 12.17 35
08 12.17 11
05 12.18 27
02 12.18 33
08 12.18 12
05 12.19 23
02 12.19 31
08 12.19 10
05 12.20 22
02 12.20 35
08 12.20 13
05 12.21 23
02 12.21 35
08 12.21 11
05 12.22 21
02 12.22 34
08 12.22 10
05 12.23 29
02 12.23 35
08 12.23 11
05 12.24 26
02 12.24 34
08 12.24 13
05 12.25 22
02 12.25 33
08 12.25 12
05 12.26 23
02 12.26 34
08 12.26 14
05 12.27 22
02 12.27 33
08 12.27 14
05 12.28 29
02 12.28 33
08 12.28 17
05 12.29 20
02 12.29 34
08 12.29 15
05 12.30 22
02 12.30 29
08 12.30 14
05 12.31 26
02 12.31 34
08 12.31 9
05 12.32 22
02 12.32 32
08 12.32 8
05 12.33 19
02 12.33 34
08 12.33 11
05 12.34 23
02 12.34 34
08 12.34 9
05 12.35 25
02 12.35 34
08 12.35 11
05 12.36 26
02 12.36 33
08 12.36 12
05 12.37 23
02 12.37 31
08 12.37 10
05 12.38 25
02 12.38 33
08 12.38 11
05 12.39 19
02 12.39 33
08 12.39 8
05 12.40 27
02 12.40 33
08 12.40 9
05 12.41 24
02 12.41 30
08 12.41 14
05 12.42 23
02 12.42 30
08 12.42 14
05 12.43 28
02 12.43 33
08 12.43 13
05 12.44 25
02 12.44 35
08 12.44 8
05 12.45 23
02 12.45 35
08 12.45 11
05 12.46 23
02 12.46 32
08 12.46 13
05 12.47 24
02 12.47 35
08 12.47 10
05 12.48 23
02 12.48 36
08 12.48 12
05 12.49 26
02 12.49 33
08 12.49 5
05 12.50 20
02 12.50 33
08 12.50 16
05 12.51 21
02 12.51 34
08 12.51 12
05 12.52 23
02 12.52 35
08 12.52 13
05 12.53 25
02 12.53 33
08 12.53 13
05 12.54 28
02 12.54 33
08 12.54 10
05 12.55 25
02 12.55 33
08 12.55 11
05 12.56 21
02 12.56 34
08 12.56 12
05 12.57 24
02 12.57 33
08 12.57 8
05 12.58 25
02 12.58 34
08 12.58 12
05 12.59 25
02 12.59 34
08 12.59 14
05 12.60 26
02 12.60 34
08 12.60 11
05 12.61 23
02 12.61 34
08 12.61 11
05 12.62 19
02 12.62 36
08 12.62 16
05 12.63 22
02 12.63 36
08 12.63 13
05 12.64 28
02 12.64 34
08 12.64 11
05 12.65 22
02 12.65 35
08 12.65 12
05 12.66 25
02 12.66 31
08 12.66 11
05 12.67 24
02 12.67 34
08 12.67 9
05 12.68 21
02 12.68 33
08 12.68 7
05 12.69 26
02 12.69 33
08 12.69 13
05 12.70 26
02 12.70 35
08 12.70 13
05 12.71 26
02 12.71 34
08 12.71 12
05 12.72 25
02 12.72 33
08 12.72 11
05 12.73 27
02 12.73 34
08 12.73 13
05 12.74 24
02 12.74 35
08 12.74 7
05 12.75 25
02 12.75 35
08 12.75 8
05 12.76 27
02 12.76 36
08 12.76 12
05 12.77 25
02 12.77 34
08 12.77 11
05 12.78 25
02 12.78 35
08 12.78 8
05 12.79 25
02 12.79 34
08 12.79 12
05 12.80 25
02 12.80 33
08 12.80 12
05 12.81 25
02 12.81 33
08 12.81 15
05 12.82 23
02 12.82 34
08 12.82 16
05 12.83 24
02 12.83 34
08 12.83 7
05 12.84 26
02 12.84 35
08 12.84 14
05 12.85 24
02 12.85 34
08 12.85 7
05 12.86 27
02 12.86 30
08 12.86 13
05 12.87 21
02 12.87 35
08 12.87 14
05 12.88 23
02 12.88 36
08 12.88 10
05 12.89 25
02 12.89 33
08 12.89 14
05 12.90 20
02 12.90 33
08 12.90 14
05 12.91 24
02 12.91 33
08 12.91 16
05 12.92 24
02 12.92 36
08 12.92 13
05 12.93 27
02 12.93 32
08 12.93 13
05 12.94 26
02 12.94 35
08 12.94 12
05 12.95 22
02 12.95 33
08 12.95 14
05 12.96 26
02 12.96 33
08 12.96 17
05 12.97 25
02 12.97 34
08 12.97 11
05 12.98 27
02 12.98 35
08 12.98 5
05 12.99 24
02 12.99 33
08 12.99 13
05 13.0 28
02 13.0 41
08 13.0 11
05 13.1 33
02 13.1 37
08 13.1 16
05 13.2 25
02 13.2 42
08 13.2 10
05 13.3 28
02 13.3 40
08 13.3 16
05 13.4 26
02 13.4 39
08 13.4 15
05 13.5 28
02 13.5 40
08 13.5 18
05 13.6 30
02 13.6 32
08 13.6 12
05 13.7 24
02 13.7 39
08 13.7 17
05 13.8 29
02 13.8 40
08 13.8 13
05 13.9 28
02 13.9 40
08 13.9 10
05 13.10 29
02 13.10 40
08 13.10 14
05 13.11 26
02 13.11 40
08 13.11 9
05 13.12 26
02 13.12 38
08 13.12 19
05 13.13 30
02 13.13 39
08 13.13 14
05 13.14 31
02 13.14 37
08 13.14 10
05 13.15 30
02 13.15 38
08 13.15 14
05 13.16 29
02 13.16 40
08 13.16 10
05 13.17 29
02 13.17 38
08 13.17 16
05 13.18 25
02 13.18 41
08 13.18 15
05 13.19 33
02 13.19 40
08 13.19 11
05 13.20 28
02 13.20 38
08 13.20 11
05 13.21 33
02 13.21 41
08 13.21 13
05 13.22 29
02 13.22 39
08 13.22 12
05 13.23 28
02 13.23 41
08 13.23 19
05 13.24 30
02 13.24 41
08 13.24 10
05 13.25 28
02 13.25 39
08 13.25 15
05 13.26 27
02 13.26 37
08 13.26 13
05 13.27 28
02 13.27 36
08 13.27 14
05 13.28 31
02 13.28 37
08 13.28 14
05 13.29 24
02 13.29 41
08 13.29 13
05 13.30 27
02 13.30 38
08 13.30 13
05 13.31 28
02 13.31 41
08 13.31 16
05 13.32 24
02 13.32 39
08 13.32 15
05 13.33 25
02 13.33 41
08 13.33 12
05 13.34 24
02 13.34 39
08 13.34 9
05 13.35 28
02 13.35 35
08 13.35 14
05 13.36 22
02 13.36 40
08 13.36 15
05 13.37 29
02 13.37 39
08 13.37 10
05 13.38 29
02 13.38 38
08 13.38 17
05 13.39 25
02 13.39 38
08 13.39 17
05 13.40 26
02 13.40 39
08 13.40 13
05 13.41 27
02 13.41 40
08 13.41 9
05 13.42 21
02 13.42 36
08 13.42 10
05 13.43 30
02 13.43 38
08 13.43 16
05 13.44 26
02 13.44 37
08 13.44 11
05 13.45 30
02 13.45 39
08 13.45 19
05 13.46 29
02 13.46 39
08 13.46 15
05 13.47 31
02 13.47 40
08 13.47 17
05 13.48 27
02 13.48 38
08 13.48 11
05 13.49 29
02 13.49 42
08 13.49 10
05 13.50 28
02 13.50 39
08 13.50 18
05 13.51 28
02 13.51 42
08 13.51 15
05 13.52 30
02 13.52 37
08 13.52 15
05 13.53 28
02 13.53 40
08 13.53 11
05 13.54 33
02 13.54 38
08 13.54 9
05 13.55 28
02 13.55 39
08 13.55 13
05 13.56 27
02 13.56 39
08 13.56 13
05 13.57 31
02 13.57 38
08 13.57 13
05 13.58 30
02 13.58 40
08 13.58 13
05 13.59 24
02 13.59 40
08 13.59 11
05 13.60 29
02 13.60 42
08 13.60 20
05 13.61 23
02 13.61 39
08 13.61 17
05 13.62 27
02 13.62 39
08 13.62 17
05 13.63 31
02 13.63 39
08 13.63 14
05 13.64 26
02 13.64 36
08 13.64 17
05 13.65 29
02 13.65 41
08 13.65 16
05 13.66 24
02 13.66 40
08 13.66 14
05 13.67 27
02 13.67 41
08 13.67 13
05 13.68 29
02 13.68 40
08 13.68 16
05 13.69 27
02 13.69 39
08 13.69 13
05 13.70 28
02 13.70 38
08 13.70 11
05 13.71 30
02 13.71 40
08 13.71 13
05 13.72 28
02 13.72 36
08 13.72 12
05 13.73 26
02 13.73 39
08 13.73 13
05 13.74 28
02 13.74 39
08 13.74 15
05 13.75 32
02 13.75 38
08 13.75 16
05 13.76 27
02 13.76 40
08 13.76 11
05 13.77 29
02 13.77 37
08 13.77 16
05 13.78 31
02 13.78 39
08 13.78 11
05 13.79 29
02 13.79 35
08 13.79 14
05 13.80 25
02 13.80 38
08 13.80 17
05 13.81 32
02 13.81 40
08 13.81 16
05 13.82 32
02 13.82 37
08 13.82 11
05 13.83 27
02 13.83 39
08 13.83 9
05 13.84 30
02 13.84 39
08 13.84 12
05 13.85 30
02 13.85 36
08 13.85 13
05 13.86 26
02 13.86 39
08 13.86 15
05 13.87 27
02 13.87 41
08 13.87 11
05 13.88 28
02 13.88 41
08 13.88 11
05 13.89 27
02 13.89 38
08 13.89 14
05 13.90 25
02 13.90 38
08 13.90 11
05 13.91 27
02 13.91 37
08 13.91 15
05 13.92 28
02 13.92 42
08 13.92 15
05 13.93 27
02 13.93 38
08 13.93 11
05 13.94 29
02 13.94 38
08 13.94 14
05 13.95 26
02 13.95 36
08 13.95 14
05 13.96 25
02 13.96 41
08 13.96 8
05 13.97 31
02 13.97 40
08 13.97 17
05 13.98 31
02 13.98 40
08 13.98 16
05 13.99 23
02 13.99 37
08 13.99 11
05 14.0 33
02 14.0 42
08 14.0 16
05 14.1 29
02 14.1 43
08 14.1 18
05 14.2 33
02 14.2 45
08 14.2 16
05 14.3 34
02 14.3 43
08 14.3 13
05 14.4 32
02 14.4 46
08 14.4 16
05 14.5 30
02 14.5 44
08 14.5 20
05 14.6 32
02 14.6 42
08 14.6 18
05 14.7 33
02 14.7 46
08 14.7 15
05 14.8 33
02 14.8 44
08 14.8 14
05 14.9 28
02 14.9 44
08 14.9 14
05 14.10 37
02 14.10 45
08 14.10 16
05 14.11 31
02 14.11 47
08 14.11 14
05 14.12 33
02 14.12 45
08 14.12 13
05 14.13 37
02 14.13 45
08 14.13 15
05 14.14 30
02 14.14 45
08 14.14 17
05 14.15 29
02 14.15 48
08 14.15 16
05 14.16 33
02 14.16 41
08 14.16 19
05 14.17 34
02 14.17 43
08 14.17 19
05 14.18 33
02 14.18 44
08 14.18 17
05 14.19 32
02 14.19 46
08 14.19 16
05 14.20 36
02 14.20 44
08 14.20 16
05 14.21 32
02 14.21 47
08 14.21 18
05 14.22 30
02 14.22 45
08 14.22 17
05 14.23 30
02 14.23 45
08 14.23 15
05 14.24 36
02 14.24 45
08 14.24 14
05 14.25 36
02 14.25 45
08 14.25 14
05 14.26 28
02 14.26 44
08 14.26 18
05 14.27 31
02 14.27 44
08 14.27 13
05 14.28 36
02 14.28 44
08 14.28 14
05 14.29 29
02 14.29 47
08 14.29 20
05 14.30 34
02 14.30 44
08 14.30 17
05 14.31 28
02 14.31 46
08 14.31 14
05 14.32 37
02 14.32 44
08 14.32 11
05 14.33 38
02 14.33 47
08 14.33 16
05 14.34 30
02 14.34 46
08 14.34 17
05 14.35 34
02 14.35 45
08 14.35 16
05 14.36 27
02 14.36 46
08 14.36 18
05 14.37 32
02 14.37 46
08 14.37 14
05 14.38 35
02 14.38 45
08 14.38 16
05 14.39 32
02 14.39 43
08 14.39 16
05 14.40 31
02 14.40 42
08 14.40 15
05 14.41 34
02 14.41 45
08 14.41 15
05 14.42 30
02 14.42 46
08 14.42 15
05 14.43 30
02 14.43 46
08 14.43 17
05 14.44 33
02 14.44 45
08 14.44 17
05 14.45 37
02 14.45 45
08 14.45 20
05 14.46 28
02 14.46 44
08 14.46 10
05 14.47 29
02 14.47 46
08 14.47 16
05 14.48 31
02 14.48 46
08 14.48 20
05 14.49 33
02 14.49 47
08 14.49 18
05 14.50 28
02 14.50 46
08 14.50 22
05 14.51 33
02 14.51 43
08 14.51 17
05 14.52 26
02 14.52 46
08 14.52 12
05 14.53 32
02 14.53 47
08 14.53 13
05 14.54 32
02 14.54 45
08 14.54 14
05 14.55 35
02 14.55 45
08 14.55 16
05 14.56 36
02 14.56 46
08 14.56 21
05 14.57 32
02 14.57 46
08 14.57 20
05 14.58 32
02 14.58 44
08 14.58 17
05 14.59 31
02 14.59 45
08 14.59 12
05 14.60 37
02 14.60 47
08 14.60 12
05 14.61 34
02 14.61 43
08 14.61 15
05 14.62 29
02 14.62 47
08 14.62 14
05 14.63 31
02 14.63 42
08 14.63 15
05 14.64 34
02 14.64 46
08 14.64 14
05 14.65 28
02 14.65 47
08 14.65 15
05 14.66 36
02 14.66 45
08 14.66 22
05 14.67 32
02 14.67 44
08 14.67 19
05 14.68 32
02 14.68 44
08 14.68 17
05 14.69 29
02 14.69 45
08 14.69 14
05 14.70 28
02 14.70 44
08 14.70 13
05 14.71 37
02 14.71 47
08 14.71 14
05 14.72 33
02 14.72 46
08 14.72 20
05 14.73 34
02 14.73 43
08 14.73 19
05 14.74 31
02 14.74 41
08 14.74 21
05 14.75 35
02 14.75 47
08 14.75 17
05 14.76 34
02 14.76 45
08 14.76 16
05 14.77 33
02 14.77 45
08 14.77 13
05 14.78 36
02 14.78 45
08 14.78 16
05 14.79 33
02 14.79 46
08 14.79 14
05 14.80 36
02 14.80 46
08 14.80 16
05 14.81 35
02 14.81 47
08 14.81 14
05 14.82 37
02 14.82 48
08 14.82 18
05 14.83 32
02 14.83 47
08 14.83 14
05 14.84 37
02 14.84 44
08 14.84 17
05 14.85 31
02 14.85 47
08 14.85 13
05 14.86 38
02 14.86 45
08 14.86 17
05 14.87 32
02 14.87 46
08 14.87 13
05 14.88 28
02 14.88 44
08 14.88 21
05 14.89 32
02 14.89 46
08 14.89 12
05 14.90 33
02 14.90 45
08 14.90 15
05 14.91 35
02 14.91 45
08 14.91 16
05 14.92 31
02 14.92 45
08 14.92 19
05 14.93 33
02 14.93 44
08 14.93 18
05 14.94 31
02 14.94 44
08 14.94 13
05 14.95 33
02 14.95 46
08 14.95 17
05 14.96 31
02 14.96 47
08 14.96 17
05 14.97 34
02 14.97 46
08 14.97 18
05 14.98 34
02 14.98 45
08 14.98 16
05 14.99 29
02 14.99 46
08 14.99 21
